43
1 0 9
3 1 10
3 2 14
4 0 5
4 1 7
4 3 5
5 0 7
5 2 9
5 3 1
5 4 8
6 0 9
6 4 1
7 1 9
7 2 8
7 3 1
8 5 1
8 6 7
9 0 12
9 6 1
9 8 13
10 0 12
10 2 7
10 3 9
10 4 1
10 7 4
11 0 7
11 2 14
11 4 11
11 5 9
11 8 8
11 9 11
11 10 6
12 1 12
12 2 12
12 6 2
12 7 7
12 8 6
12 9 2
12 10 4
12 11 6
13 4 14
13 5 4
13 6 9
13 8 4
13 11 2
14 0 1
14 1 7
14 4 3
14 7 13
14 8 1
14 10 1
14 13 12
15 2 12
15 3 7
15 8 13
15 13 13
15 14 6
16 5 14
16 6 10
16 7 7
16 8 9
16 12 8
16 13 14
16 14 5
17 0 11
17 1 3
17 2 10
17 7 13
17 8 13
17 9 11
17 11 3
17 15 3
18 0 13
18 1 14
18 3 3
18 4 10
18 5 3
18 6 10
18 7 9
18 8 11
18 12 6
18 13 6
18 14 5
18 15 5
18 17 8
19 0 8
19 1 14
19 4 3
19 7 10
19 9 13
19 12 14
19 18 8
20 0 9
20 2 14
20 3 12
20 4 12
20 5 3
20 10 8
20 12 2
20 17 4
20 19 9
21 0 6
21 1 6
21 3 14
21 4 12
21 6 13
21 7 12
21 8 5
21 10 12
21 12 13
21 15 8
21 16 7
21 17 4
21 19 12
22 3 7
22 7 6
22 8 3
22 13 8
22 15 8
22 17 12
22 19 12
23 1 4
23 4 11
23 5 5
23 6 7
23 7 14
23 8 5
23 9 12
23 10 7
23 11 1
23 13 12
23 15 3
23 17 7
23 18 7
23 19 9
23 20 5
23 22 11
24 1 8
24 3 11
24 4 7
24 7 4
24 8 4
24 11 12
24 12 13
24 13 6
24 14 11
24 15 5
24 16 4
24 19 5
24 20 8
24 21 11
24 23 5
25 1 12
25 4 7
25 5 13
25 10 6
25 11 12
25 13 1
25 14 1
25 15 2
25 17 12
25 20 5
25 21 14
25 22 2
25 23 14
25 24 3
26 0 10
26 1 14
26 2 12
26 5 10
26 13 8
26 15 3
26 18 6
26 22 5
26 23 14
26 25 1
27 0 1
27 1 11
27 4 5
27 5 14
27 6 1
27 8 2
27 12 14
27 13 10
27 17 8
27 18 11
27 19 8
27 20 6
27 22 5
27 23 7
28 0 1
28 2 1
28 4 6
28 6 6
28 9 7
28 10 10
28 12 3
28 16 9
28 17 3
28 18 8
28 23 14
29 1 5
29 2 10
29 3 9
29 4 5
29 8 14
29 9 4
29 15 8
29 16 7
29 18 12
29 22 11
29 24 6
29 26 11
29 27 3
29 28 6
30 1 7
30 2 11
30 4 2
30 5 12
30 8 11
30 9 12
30 14 14
30 16 10
30 17 13
30 18 11
30 22 4
30 26 12
30 27 13
30 29 6
31 1 2
31 3 3
31 4 4
31 5 7
31 6 7
31 7 14
31 8 6
31 10 1
31 13 13
31 14 10
31 15 1
31 17 7
31 18 5
31 21 6
31 22 6
31 23 13
31 24 14
31 26 12
31 28 9
31 30 1
32 5 5
32 6 6
32 7 11
32 8 2
32 12 6
32 13 2
32 14 6
32 15 5
32 16 13
32 17 7
32 18 5
32 20 1
32 21 14
32 22 13
32 23 11
32 26 13
33 2 4
33 3 11
33 4 14
33 5 12
33 6 2
33 8 6
33 9 2
33 13 12
33 14 13
33 16 5
33 17 8
33 19 2
33 21 5
33 27 11
33 28 7
33 31 2
33 32 11
34 0 10
34 1 2
34 2 4
34 7 9
34 8 13
34 9 7
34 12 13
34 13 8
34 14 8
34 16 10
34 17 1
34 18 1
34 20 14
34 21 2
34 23 13
34 25 1
34 28 2
34 31 12
34 32 14
34 33 3
35 2 12
35 3 4
35 4 1
35 7 6
35 9 12
35 10 12
35 11 14
35 14 7
35 15 11
35 21 4
35 23 12
35 24 4
35 25 1
35 29 13
35 30 8
35 31 3
35 32 5
36 1 6
36 5 9
36 7 13
36 8 4
36 9 3
36 11 5
36 16 3
36 18 12
36 20 8
36 22 8
36 24 6
36 25 6
36 26 12
36 29 11
36 30 12
36 31 10
36 33 13
37 1 3
37 3 13
37 7 1
37 8 6
37 12 8
37 13 14
37 14 4
37 15 7
37 18 2
37 19 1
37 20 10
37 21 12
37 22 5
37 23 12
37 24 10
37 32 13
37 33 5
38 2 14
38 3 5
38 4 2
38 7 5
38 13 12
38 16 7
38 17 7
38 18 9
38 26 7
38 27 3
38 31 10
38 32 7
38 33 1
38 34 12
38 36 4
38 37 13
39 0 14
39 2 14
39 3 13
39 4 6
39 5 5
39 6 12
39 7 6
39 9 10
39 11 13
39 12 3
39 14 13
39 15 10
39 16 11
39 18 10
39 21 13
39 22 6
39 23 1
39 24 5
39 29 1
39 32 2
39 33 2
39 35 9
39 36 13
39 37 5
39 38 13
40 1 12
40 2 10
40 3 7
40 8 5
40 9 10
40 10 12
40 14 14
40 17 12
40 18 6
40 19 5
40 20 10
40 21 3
40 22 11
40 23 7
40 29 1
40 30 12
40 31 6
40 32 6
40 34 14
40 35 12
40 36 10
40 38 7
40 39 8
41 2 9
41 3 7
41 7 5
41 8 2
41 9 6
41 10 2
41 11 9
41 12 14
41 14 5
41 18 3
41 20 5
41 22 6
41 23 1
41 26 4
41 30 8
41 33 14
41 34 2
41 35 12
41 37 5
41 40 13
42 3 5
42 4 5
42 5 11
42 8 4
42 9 4
42 11 5
42 12 6
42 15 8
42 19 11
42 21 7
42 24 12
42 25 4
42 26 4
42 27 8
42 29 10
42 31 10
42 33 3
42 36 13
42 39 4
42 40 3
42 41 13
